% File represents an instance of a Composite Structure problem to be solved by a CP framework
% Created on 2025-03-26 10:41:16.067
T = 58;
n = 9;
m = 12;
edges = [(2, 1),
(4, 5),
(8, 7),
(3, 2),
(6, 5),
(9, 8),
(4, 1),
(7, 4),
(2, 5),
(8, 5),
(3, 6),
(9, 6)];
counts = [|14, 4, 14, 18,
|14, 4, 14, 22,
|14, 4, 14, 24,
|14, 6, 14, 18,
|14, 4, 14, 18,
|14, 4, 14, 22,
|14, 6, 14, 20,
|14, 6, 14, 22,
|14, 8, 14, 22|];
